<?xml version="1.0" encoding="UTF-8"?><osil xmlns="os.optimizationservices.org" xmlns:xsi="http://www.w3.org/2001/XMLSchema-instance" xsi:schemaLocation="os.optimizationservices.org http://www.optimizationservices.org/schemas/2.0/OSiL.xsd"><instanceHeader><name>tls4</name></instanceHeader><instanceData><variables numberOfVariables="105"><var name="b1" type="B" ub="1"/><var name="b2" type="B" ub="1"/><var name="b3" type="B" ub="1"/><var name="b4" type="B" ub="1"/><var name="i5" type="I" lb="1" ub="100"/><var name="i6" type="I" lb="1" ub="100"/><var name="i7" type="I" lb="1" ub="100"/><var name="i8" type="I" lb="1" ub="100"/><var name="x9" lb="1"/><var name="x10" lb="1"/><var name="x11" lb="1"/><var name="x12" lb="1"/><var name="x13" lb="1"/><var name="x14" lb="1"/><var name="x15" lb="1"/><var name="x16" lb="1"/><var name="x17" lb="1"/><var name="x18" lb="1"/><var name="x19" lb="1"/><var name="x20" lb="1"/><var name="x21" lb="1"/><var name="x22" lb="1"/><var name="x23" lb="1"/><var name="x24" lb="1"/><var name="b25" type="B" ub="1"/><var name="b26" type="B" ub="1"/><var name="b27" type="B" ub="1"/><var name="b28" type="B" ub="1"/><var name="b29" type="B" ub="1"/><var name="b30" type="B" ub="1"/><var name="b31" type="B" ub="1"/><var name="b32" type="B" ub="1"/><var name="b33" type="B" ub="1"/><var name="b34" type="B" ub="1"/><var name="b35" type="B" ub="1"/><var name="b36" type="B" ub="1"/><var name="b37" type="B" ub="1"/><var name="b38" type="B" ub="1"/><var name="b39" type="B" ub="1"/><var name="b40" type="B" ub="1"/><var name="b41" type="B" ub="1"/><var name="b42" type="B" ub="1"/><var name="b43" type="B" ub="1"/><var name="b44" type="B" ub="1"/><var name="b45" type="B" ub="1"/><var name="b46" type="B" ub="1"/><var name="b47" type="B" ub="1"/><var name="b48" type="B" ub="1"/><var name="b49" type="B" ub="1"/><var name="b50" type="B" ub="1"/><var name="b51" type="B" ub="1"/><var name="b52" type="B" ub="1"/><var name="b53" type="B" ub="1"/><var name="b54" type="B" ub="1"/><var name="b55" type="B" ub="1"/><var name="b56" type="B" ub="1"/><var name="b57" type="B" ub="1"/><var name="b58" type="B" ub="1"/><var name="b59" type="B" ub="1"/><var name="b60" type="B" ub="1"/><var name="b61" type="B" ub="1"/><var name="b62" type="B" ub="1"/><var name="b63" type="B" ub="1"/><var name="b64" type="B" ub="1"/><var name="b65" type="B" ub="1"/><var name="b66" type="B" ub="1"/><var name="b67" type="B" ub="1"/><var name="b68" type="B" ub="1"/><var name="b69" type="B" ub="1"/><var name="b70" type="B" ub="1"/><var name="b71" type="B" ub="1"/><var name="b72" type="B" ub="1"/><var name="b73" type="B" ub="1"/><var name="b74" type="B" ub="1"/><var name="b75" type="B" ub="1"/><var name="b76" type="B" ub="1"/><var name="b77" type="B" ub="1"/><var name="b78" type="B" ub="1"/><var name="b79" type="B" ub="1"/><var name="b80" type="B" ub="1"/><var name="b81" type="B" ub="1"/><var name="b82" type="B" ub="1"/><var name="b83" type="B" ub="1"/><var name="b84" type="B" ub="1"/><var name="b85" type="B" ub="1"/><var name="b86" type="B" ub="1"/><var name="b87" type="B" ub="1"/><var name="b88" type="B" ub="1"/><var name="b89" type="B" ub="1"/><var name="b90" type="B" ub="1"/><var name="b91" type="B" ub="1"/><var name="b92" type="B" ub="1"/><var name="b93" type="B" ub="1"/><var name="b94" type="B" ub="1"/><var name="b95" type="B" ub="1"/><var name="b96" type="B" ub="1"/><var name="b97" type="B" ub="1"/><var name="b98" type="B" ub="1"/><var name="b99" type="B" ub="1"/><var name="b100" type="B" ub="1"/><var name="b101" type="B" ub="1"/><var name="b102" type="B" ub="1"/><var name="b103" type="B" ub="1"/><var name="b104" type="B" ub="1"/><var name="b105" type="B" ub="1"/></variables><objectives><obj maxOrMin="min" name="defObj_objvar" numberOfObjCoef="25"><coef idx="0">.1</coef><coef idx="1">.2</coef><coef idx="2">.3</coef><coef idx="3">.4</coef><coef idx="24">1</coef><coef idx="25">2</coef><coef idx="26">3</coef><coef idx="27">4</coef><coef idx="28">5</coef><coef idx="29">6</coef><coef idx="30">7</coef><coef idx="31">8</coef><coef idx="32">1</coef><coef idx="33">2</coef><coef idx="34">3</coef><coef idx="35">4</coef><coef idx="36">5</coef><coef idx="37">6</coef><coef idx="38">7</coef><coef idx="39">1</coef><coef idx="40">2</coef><coef idx="41">3</coef><coef idx="42">4</coef><coef idx="43">1</coef><coef idx="44">2</coef></obj></objectives><constraints numberOfConstraints="64"><con name="e2" ub="1.9e3"/><con name="e3" ub="1.9e3"/><con name="e4" ub="1.9e3"/><con name="e5" ub="1.9e3"/><con name="e6" ub="-1.7e3"/><con name="e7" ub="-1.7e3"/><con name="e8" ub="-1.7e3"/><con name="e9" ub="-1.7e3"/><con name="e10" ub="5"/><con name="e11" ub="5"/><con name="e12" ub="5"/><con name="e13" ub="5"/><con name="e14" ub="0"/><con name="e15" ub="0"/><con name="e16" ub="0"/><con name="e17" ub="0"/><con name="e18" ub="0"/><con name="e19" ub="0"/><con name="e20" ub="0"/><con name="e21" ub="0"/><con name="e22" lb="1" ub="1"/><con name="e23" lb="1" ub="1"/><con name="e24" lb="1" ub="1"/><con name="e25" lb="1" ub="1"/><con name="e26" ub="1"/><con name="e27" ub="1"/><con name="e28" ub="1"/><con name="e29" ub="1"/><con name="e30" lb="1" ub="1"/><con name="e31" lb="1" ub="1"/><con name="e32" lb="1" ub="1"/><con name="e33" lb="1" ub="1"/><con name="e34" lb="1" ub="1"/><con name="e35" lb="1" ub="1"/><con name="e36" lb="1" ub="1"/><con name="e37" lb="1" ub="1"/><con name="e38" lb="1" ub="1"/><con name="e39" lb="1" ub="1"/><con name="e40" lb="1" ub="1"/><con name="e41" lb="1" ub="1"/><con name="e42" lb="1" ub="1"/><con name="e43" lb="1" ub="1"/><con name="e44" lb="1" ub="1"/><con name="e45" lb="1" ub="1"/><con name="e46" ub="1"/><con name="e47" ub="1"/><con name="e48" ub="1"/><con name="e49" ub="1"/><con name="e50" ub="1"/><con name="e51" ub="1"/><con name="e52" ub="1"/><con name="e53" ub="1"/><con name="e54" ub="1"/><con name="e55" ub="1"/><con name="e56" ub="1"/><con name="e57" ub="1"/><con name="e58" ub="1"/><con name="e59" ub="1"/><con name="e60" ub="1"/><con name="e61" ub="1"/><con name="e62" ub="-12"/><con name="e63" ub="-11"/><con name="e64" ub="-16"/><con name="e65" ub="-15"/></constraints><linearConstraintCoefficients numberOfValues="556"><start><el mult="13" incr="15">0</el><el>189</el><el>197</el><el>202</el><el>205</el><el>214</el><el>222</el><el>227</el><el>230</el><el>239</el><el>247</el><el>252</el><el>255</el><el>263</el><el>270</el><el>274</el><el mult="5" incr="5">276</el><el mult="4" incr="6">302</el><el mult="4" incr="5">325</el><el mult="4" incr="3">343</el><el mult="4" incr="4">356</el><el mult="4" incr="5">373</el><el mult="4" incr="4">392</el><el mult="4" incr="2">406</el><el>449</el><el>490</el><el>527</el><el>556</el></start><colIdx><el mult="4" incr="1">45</el><el mult="5" incr="1">61</el><el mult="4" incr="1">81</el><el>97</el><el>98</el><el mult="4" incr="1">49</el><el mult="5" incr="1">66</el><el mult="4" incr="1">85</el><el>99</el><el>100</el><el mult="4" incr="1">53</el><el mult="5" incr="1">71</el><el mult="4" incr="1">89</el><el>101</el><el>102</el><el mult="4" incr="1">57</el><el mult="5" incr="1">76</el><el mult="4" incr="1">93</el><el>103</el><el>104</el><el mult="4" incr="1">45</el><el mult="5" incr="1">61</el><el mult="4" incr="1">81</el><el>97</el><el>98</el><el mult="4" incr="1">49</el><el mult="5" incr="1">66</el><el mult="4" incr="1">85</el><el>99</el><el>100</el><el mult="4" incr="1">53</el><el mult="5" incr="1">71</el><el mult="4" incr="1">89</el><el>101</el><el>102</el><el mult="4" incr="1">57</el><el mult="5" incr="1">76</el><el mult="4" incr="1">93</el><el>103</el><el>104</el><el mult="4" incr="1">45</el><el mult="5" incr="1">61</el><el mult="4" incr="1">81</el><el>97</el><el>98</el><el mult="4" incr="1">49</el><el mult="5" incr="1">66</el><el mult="4" incr="1">85</el><el>99</el><el>100</el><el mult="4" incr="1">53</el><el mult="5" incr="1">71</el><el mult="4" incr="1">89</el><el>101</el><el>102</el><el mult="4" incr="1">57</el><el mult="5" incr="1">76</el><el mult="4" incr="1">93</el><el>103</el><el>104</el><el>0</el><el mult="8" incr="1">24</el><el>1</el><el mult="7" incr="1">32</el><el>2</el><el mult="4" incr="1">39</el><el>3</el><el>43</el><el>44</el><el>0</el><el mult="8" incr="1">24</el><el>1</el><el mult="7" incr="1">32</el><el>2</el><el mult="4" incr="1">39</el><el>3</el><el>43</el><el>44</el><el>4</el><el mult="8" incr="1">24</el><el>5</el><el mult="7" incr="1">32</el><el>6</el><el mult="4" incr="1">39</el><el>7</el><el>43</el><el>44</el><el mult="21" incr="1">24</el><el>8</el><el mult="4" incr="1">45</el><el>9</el><el mult="4" incr="1">49</el><el>10</el><el mult="4" incr="1">53</el><el>11</el><el mult="4" incr="1">57</el><el>12</el><el mult="5" incr="1">61</el><el>13</el><el mult="5" incr="1">66</el><el>14</el><el mult="5" incr="1">71</el><el>15</el><el mult="5" incr="1">76</el><el>16</el><el mult="4" incr="1">81</el><el>17</el><el mult="4" incr="1">85</el><el>18</el><el mult="4" incr="1">89</el><el>19</el><el mult="4" incr="1">93</el><el>20</el><el>97</el><el>98</el><el>21</el><el>99</el><el>100</el><el>22</el><el>101</el><el>102</el><el>23</el><el>103</el><el>104</el><el mult="60" incr="1">45</el><el mult="37" incr="1">24</el><el mult="21" incr="1">24</el><el mult="20" incr="1">61</el><el mult="21" incr="1">24</el><el mult="16" incr="1">81</el><el mult="21" incr="1">24</el><el mult="8" incr="1">97</el></colIdx><value><el>3.3e2</el><el>6.6e2</el><el>9.9e2</el><el>1.32e3</el><el>3.6e2</el><el>7.2e2</el><el>1.08e3</el><el>1.44e3</el><el>1.8e3</el><el>385</el><el>7.7e2</el><el>1155</el><el>1.54e3</el><el>415</el><el>8.3e2</el><el>3.3e2</el><el>6.6e2</el><el>9.9e2</el><el>1.32e3</el><el>3.6e2</el><el>7.2e2</el><el>1.08e3</el><el>1.44e3</el><el>1.8e3</el><el>385</el><el>7.7e2</el><el>1155</el><el>1.54e3</el><el>415</el><el>8.3e2</el><el>3.3e2</el><el>6.6e2</el><el>9.9e2</el><el>1.32e3</el><el>3.6e2</el><el>7.2e2</el><el>1.08e3</el><el>1.44e3</el><el>1.8e3</el><el>385</el><el>7.7e2</el><el>1155</el><el>1.54e3</el><el>415</el><el>8.3e2</el><el>3.3e2</el><el>6.6e2</el><el>9.9e2</el><el>1.32e3</el><el>3.6e2</el><el>7.2e2</el><el>1.08e3</el><el>1.44e3</el><el>1.8e3</el><el>385</el><el>7.7e2</el><el>1155</el><el>1.54e3</el><el>415</el><el>8.3e2</el><el>-3.3e2</el><el>-6.6e2</el><el>-9.9e2</el><el>-1.32e3</el><el>-3.6e2</el><el>-7.2e2</el><el>-1.08e3</el><el>-1.44e3</el><el>-1.8e3</el><el>-385</el><el>-7.7e2</el><el>-1155</el><el>-1.54e3</el><el>-415</el><el>-8.3e2</el><el>-3.3e2</el><el>-6.6e2</el><el>-9.9e2</el><el>-1.32e3</el><el>-3.6e2</el><el>-7.2e2</el><el>-1.08e3</el><el>-1.44e3</el><el>-1.8e3</el><el>-385</el><el>-7.7e2</el><el>-1155</el><el>-1.54e3</el><el>-415</el><el>-8.3e2</el><el>-3.3e2</el><el>-6.6e2</el><el>-9.9e2</el><el>-1.32e3</el><el>-3.6e2</el><el>-7.2e2</el><el>-1.08e3</el><el>-1.44e3</el><el>-1.8e3</el><el>-385</el><el>-7.7e2</el><el>-1155</el><el>-1.54e3</el><el>-415</el><el>-8.3e2</el><el>-3.3e2</el><el>-6.6e2</el><el>-9.9e2</el><el>-1.32e3</el><el>-3.6e2</el><el>-7.2e2</el><el>-1.08e3</el><el>-1.44e3</el><el>-1.8e3</el><el>-385</el><el>-7.7e2</el><el>-1155</el><el>-1.54e3</el><el>-415</el><el>-8.3e2</el><el>1</el><el>2</el><el>3</el><el>4</el><el>1</el><el>2</el><el>3</el><el>4</el><el>5</el><el>1</el><el>2</el><el>3</el><el>4</el><el>1</el><el>2</el><el>1</el><el>2</el><el>3</el><el>4</el><el>1</el><el>2</el><el>3</el><el>4</el><el>5</el><el>1</el><el>2</el><el>3</el><el>4</el><el>1</el><el>2</el><el>1</el><el>2</el><el>3</el><el>4</el><el>1</el><el>2</el><el>3</el><el>4</el><el>5</el><el>1</el><el>2</el><el>3</el><el>4</el><el>1</el><el>2</el><el>1</el><el>2</el><el>3</el><el>4</el><el>1</el><el>2</el><el>3</el><el>4</el><el>5</el><el>1</el><el>2</el><el>3</el><el>4</el><el>1</el><el>2</el><el>1</el><el>-1</el><el>-2</el><el>-3</el><el>-4</el><el>-5</el><el>-6</el><el>-7</el><el>-8</el><el>1</el><el>-1</el><el>-2</el><el>-3</el><el>-4</el><el>-5</el><el>-6</el><el>-7</el><el>1</el><el>-1</el><el>-2</el><el>-3</el><el>-4</el><el>1</el><el>-1</el><el>-2</el><el>-8</el><el>1</el><el>2</el><el>3</el><el>4</el><el>5</el><el>6</el><el>7</el><el>8</el><el>-7</el><el>1</el><el>2</el><el>3</el><el>4</el><el>5</el><el>6</el><el>7</el><el>-4</el><el>1</el><el>2</el><el>3</el><el>4</el><el>-2</el><el>1</el><el>2</el><el>1</el><el>-3</el><el>-8</el><el>-15</el><el>-24</el><el>-35</el><el>-48</el><el>-63</el><el>-80</el><el>1</el><el>-3</el><el>-8</el><el>-15</el><el>-24</el><el>-35</el><el>-48</el><el>-63</el><el>1</el><el>-3</el><el>-8</el><el>-15</el><el>-24</el><el>1</el><el>-3</el><el>-8</el><el mult="22">1</el><el>-3</el><el>-8</el><el>-15</el><el>-24</el><el>1</el><el>-3</el><el>-8</el><el>-15</el><el>-24</el><el>1</el><el>-3</el><el>-8</el><el>-15</el><el>-24</el><el>1</el><el>-3</el><el>-8</el><el>-15</el><el>-24</el><el>1</el><el>-3</el><el>-8</el><el>-15</el><el>-24</el><el>-35</el><el>1</el><el>-3</el><el>-8</el><el>-15</el><el>-24</el><el>-35</el><el>1</el><el>-3</el><el>-8</el><el>-15</el><el>-24</el><el>-35</el><el>1</el><el>-3</el><el>-8</el><el>-15</el><el>-24</el><el>-35</el><el>1</el><el>-3</el><el>-8</el><el>-15</el><el>-24</el><el>1</el><el>-3</el><el>-8</el><el>-15</el><el>-24</el><el>1</el><el>-3</el><el>-8</el><el>-15</el><el>-24</el><el>1</el><el>-3</el><el>-8</el><el>-15</el><el>-24</el><el>1</el><el>-3</el><el>-8</el><el>1</el><el>-3</el><el>-8</el><el>1</el><el>-3</el><el>-8</el><el>1</el><el>-3</el><el>-8</el><el mult="61">1</el><el>2</el><el>3</el><el>4</el><el>5</el><el>6</el><el>7</el><el>8</el><el>1</el><el>2</el><el>3</el><el>4</el><el>5</el><el>6</el><el>7</el><el>1</el><el>2</el><el>3</el><el>4</el><el>1</el><el>2</el><el>1</el><el>2</el><el>3</el><el>4</el><el>1</el><el>2</el><el>3</el><el>4</el><el>1</el><el>2</el><el>3</el><el>4</el><el>1</el><el>2</el><el>3</el><el>4</el><el>1</el><el>2</el><el>3</el><el>4</el><el>5</el><el>6</el><el>7</el><el>8</el><el>1</el><el>2</el><el>3</el><el>4</el><el>5</el><el>6</el><el>7</el><el>1</el><el>2</el><el>3</el><el>4</el><el>1</el><el>2</el><el>1</el><el>2</el><el>3</el><el>4</el><el>5</el><el>1</el><el>2</el><el>3</el><el>4</el><el>5</el><el>1</el><el>2</el><el>3</el><el>4</el><el>5</el><el>1</el><el>2</el><el>3</el><el>4</el><el>5</el><el>1</el><el>2</el><el>3</el><el>4</el><el>5</el><el>6</el><el>7</el><el>8</el><el>1</el><el>2</el><el>3</el><el>4</el><el>5</el><el>6</el><el>7</el><el>1</el><el>2</el><el>3</el><el>4</el><el>1</el><el>2</el><el>1</el><el>2</el><el>3</el><el>4</el><el>1</el><el>2</el><el>3</el><el>4</el><el>1</el><el>2</el><el>3</el><el>4</el><el>1</el><el>2</el><el>3</el><el>4</el><el>1</el><el>2</el><el>3</el><el>4</el><el>5</el><el>6</el><el>7</el><el>8</el><el>1</el><el>2</el><el>3</el><el>4</el><el>5</el><el>6</el><el>7</el><el>1</el><el>2</el><el>3</el><el>4</el><el>1</el><el>2</el><el>1</el><el>2</el><el>1</el><el>2</el><el>1</el><el>2</el><el>1</el><el>2</el></value></linearConstraintCoefficients><nonlinearExpressions numberOfNonlinearExpressions="4"><nl idx="60"><negate><sum><sqrt><product><variable idx="4"/><variable idx="8"/></product></sqrt><sqrt><product><variable idx="5"/><variable idx="9"/></product></sqrt><sqrt><product><variable idx="6"/><variable idx="10"/></product></sqrt><sqrt><product><variable idx="7"/><variable idx="11"/></product></sqrt></sum></negate></nl><nl idx="61"><negate><sum><sqrt><product><variable idx="4"/><variable idx="12"/></product></sqrt><sqrt><product><variable idx="5"/><variable idx="13"/></product></sqrt><sqrt><product><variable idx="6"/><variable idx="14"/></product></sqrt><sqrt><product><variable idx="7"/><variable idx="15"/></product></sqrt></sum></negate></nl><nl idx="62"><negate><sum><sqrt><product><variable idx="4"/><variable idx="16"/></product></sqrt><sqrt><product><variable idx="5"/><variable idx="17"/></product></sqrt><sqrt><product><variable idx="6"/><variable idx="18"/></product></sqrt><sqrt><product><variable idx="7"/><variable idx="19"/></product></sqrt></sum></negate></nl><nl idx="63"><negate><sum><sqrt><product><variable idx="4"/><variable idx="20"/></product></sqrt><sqrt><product><variable idx="5"/><variable idx="21"/></product></sqrt><sqrt><product><variable idx="6"/><variable idx="22"/></product></sqrt><sqrt><product><variable idx="7"/><variable idx="23"/></product></sqrt></sum></negate></nl></nonlinearExpressions></instanceData></osil>